Route #1: 17 3 44 32 40 12
Route #2: 26 53 14 59 19 35
Route #3: 7 11 38 10 58
Route #4: 39 9 31 25 55 18 50
Route #5: 24 49 23 56 41 42 64
Route #6: 51 16 63 43 1 33 6
Route #7: 2 62 22 28 61 21
Route #8: 5 37 20 60 36 47 48
Route #9: 30 45 29 15 57 13 54 8
Route #10: 46 34 52 27 4
Cost 829